language Essence 1.3

letting bot_end be [481, 50, 441, 354, 177, 66, 6, 146, 155, 1, 515, 44, 102, 122, 127, 198, 394; int(1..17)]
letting bot_start be [149, 360, 277, 18, 544, 280, 406, 348, 436, 336, 278, 368, 426, 507, 428, 463, 91; int(1..17)]
letting buffer_col be 2
letting buffer_row be 2
letting corridor_size be 1
letting n_shelves_col be 3
letting n_shelves_row be 19
letting shelf_col_size be 2
letting shelf_row_size be 1
